
 102   30
  10   10   10   10   10   10   10   10   10   10   10   10   10   10   10   10   10   10   10   10   10   10   10   10   10   10   10   10   10   10

   0   0   0   0   0   0   0   0   0   0   0   0   0   0   0   0   0   0   0   0   0   0   0   0   0   0   0   0   0   0   0  29 2 4 5 6 7 8 9 10 11 12 13 14 15 16 17 18 19 20 21 23 26 27 29 30 31 32 37 44 45 
   3   0   0   0   0   0   0   0   0   1   0   0   4   0   0   0   0   0   0   0   0   0   0   0   0   0   0   0   0   0   0   9 73 59 55 49 34 33 25 24 3 
   9   0   0   0   0   0   1   0   0   0   0   0   0   0   0   0   0   1   0   0   0   0   0   0   0   0   0   1   0   0   2  14 100 96 72 71 65 64 60 58 57 47 41 38 36 28 
   5   0   0   0   0   1   0   0   0   0   0   0   0   0   2   0   0   0   0   0   0   0   0   0   0   1   1   9   0   1   0  15 101 72 71 70 60 58 57 51 49 48 46 43 41 39 33 
   5   0   0   0   0   0   0   0   0   5   0   0   0   0   0   0   1   0   0   0   0   0   5   0   0   0   0   2   0   0   9  12 101 100 94 65 64 56 55 53 49 46 25 22 
   6   0   0   0   2   0   9   1   0   4   0   0   7   0   0   0   0   0   0   1   0   0   0   0   0   6   0   0   2   0   0  13 99 98 97 71 69 64 59 57 56 51 41 34 33 
   7   0   0   0   0   0   5   0   0   0   0   0   0   1   0   0   0   0   0   0   0   0   0   0   0   7   0   0   0   0   0  12 101 100 98 71 70 65 57 56 50 48 41 28 
   1   0   0   0   0   0   8   0   0   0   0   0  10   0   0   0   0   0   2   0   0   0   0   0   1   8   0   0   0   0   0  12 101 95 93 70 61 55 50 47 46 42 39 35 
   7   0   0   0   4   0   0   7   0   0   1   0   4   0   0   0   6   7   0   0   1   0   0   0   0   0   0   0  10   0   0  19 100 99 96 94 93 92 91 73 72 69 64 63 61 57 56 55 54 50 34 
  10   0   0   0   0   0   0   0   0   0   0   0   0   0   0   0   0   0   0   0   0   0   0   0   0   0   0   0   0   0   0  12 71 70 69 64 59 58 57 52 46 42 41 33 
   3   0   0   2   0   0   0   0   0   0   0   0   0   0   0   0   7   0   0   0   0   0   0   0   0   0   0   0   5   0   0  15 101 100 98 97 92 91 88 73 72 64 60 57 48 47 34 
   1   0   0   0   0  10   0   0   0   0   0   0   0   5   0   0   0   0   0   0   0   0   0   0   0   4   0   0   0   0   0  16 101 98 97 96 95 85 82 81 72 70 66 64 57 50 47 41 
   6   0   0   0   0   0   8   5   1   0   0   0   0   0   0   0   0   0   0   0   0   0   0   0   0   0   5   0   0   0   0  15 101 98 97 96 95 94 87 73 71 64 57 55 50 46 41 
   6   1   0   4   0   5   0   0   4   0   0   0   0   0   0   0   5   0   0   0   0   0   0   0   0   0   5   0   0   4   0  14 101 98 92 91 72 71 70 63 61 59 56 55 54 28 
   1   0   0   8   0   0   0   0   0   0   0   0   0   0   7   0   0   0   0   9   0   0   0   0   0   0   0   0   0   0   0  17 100 95 94 93 91 88 85 84 73 70 69 68 66 59 55 48 35 
   6   0   0   0   0   0   0   0   9   0   0   0   0   0   0   0   0   9   0   0  10   0   5   0   0   0   0   0   0   0   0  14 101 100 99 97 96 95 92 85 65 64 61 54 40 38 
   9   0   0   0  10   7   0   0   0   4   0   0   0   0   0   0   0   0   0   0   6   0   0   0   0   0   0   0   0   0   0  16 100 99 97 94 93 91 90 88 85 70 69 68 66 61 51 35 
   3   8   0   0   0   5   0   0   0   0   0   0   0   0   0   0   0   0   0   0   0   2   0   0   1   0   0   0   0   0   0  11 100 99 98 97 95 94 72 57 46 42 41 
   8   0   0   0   0   0   0   6   0   0   0   0   0   0   0   0   6   7   0  10   0   0   0   1   0   8   0   0   0   0   0  18 100 99 98 94 91 90 87 78 71 69 67 65 56 55 52 51 50 46 
   7   0   0   0   0   0   0   0   0   0   0   0   6   0   0   0   0   0   0   0   0   0   0   0   0   0   0   0   0   0   0  24 101 99 98 97 96 93 92 90 89 88 86 84 80 71 70 69 68 67 66 63 62 58 57 55 
   9   5   0   0   7   0   6   0   0   0   0   0   0   0   0   0   0   0   0   0   0   0   0   0   6   0   0   0   0   0   0  18 98 97 96 91 90 87 85 78 71 69 68 66 63 61 55 54 52 50 
   3   0   0   0   0   0   0   0   0   0   0   0   0   0   0   0   0   0   0   0   0   0  10   0   9   0   0   0   0   0   7  14 98 97 89 86 85 82 81 80 70 69 68 66 57 41 
  10   0   0   4   0   0   0   0   0   0   0   0   0   0   0   0   6   0   0   0   0   0   8   7   0   0   0  10   0   0   4  19 100 96 94 93 91 90 88 87 86 85 81 71 69 68 67 66 64 57 50 
   9   0   0   0   0   0   0   4   0   0   0   2   4   5   0   0   0   0   2   0   0   0   0   0   0   0   4   0   0   0   0  20 101 99 98 96 95 94 91 90 84 82 81 80 70 69 67 66 62 58 57 54 
   5   0   0   0   8   0   0   0   0   0   0   7   0   0   0   0   0   0   7   8   0   0   0   0   0   8   0   0   6   5   0  14 97 96 93 92 91 90 85 70 69 68 67 63 51 50 
   9   0   0   0   0   0   0   0   0   0   0   6   0   0   0   0   0   0   5   0   0   8   0   0   0   0   0   5   0   0   0  18 100 99 96 94 93 90 88 87 86 85 82 81 80 68 66 62 61 57 
   7   0   0   0   0   6   0   0   0   0   0   0   0   0   0   1   0   0   5   0   4   0   0   0   7   0   0   0   0   0   0  16 101 100 97 96 91 88 85 84 80 78 71 70 69 66 65 51 
   2   0   0   0   0   0   8   0   0   0   0   0   5   0   0   4   6   0   0   0   0   0   3   8   0   0   0   0   0   0   0  13 99 97 90 88 87 84 83 80 78 67 62 51 46 
   1   0   0   0   0   0   0   0   0   0   0   0   0   0   0   0   0   0   0   0   0   0   0   0   0   0   0   0   0   0   5  19 101 97 95 90 89 88 86 85 84 81 80 78 74 71 70 69 67 66 63 
   3   0   4   0   0   0   0   3   0   0   0   0   0   0   6   0   0   0   0   0   0   0   0   0   0   0   0   0   0   8   0  19 97 96 93 92 91 88 87 86 85 84 81 79 77 71 68 66 64 62 57 
   8   0   2   0   0   0   0   0  10   0   0   0   0   0   0   0   0   0   0   0   0   5   8   0   4   0   0   0   0   0   0  15 92 91 90 89 86 84 83 80 71 69 67 66 64 55 54 
   4   0   0   0   0   0   0   0   8   0   0   6   0   0   0   6   0   0   0   0   0   0   0   0   6   0   0   0   0   6   0  13 101 98 96 92 91 89 86 85 82 81 77 66 47 
   4   0   0   0   0   0   0   0   0   0   0   0   0   0   0   7   0   0   0   0   0   0   0   0   0   0   0   0  10  10   0  14 96 95 94 93 91 88 85 83 82 81 78 77 66 50 
   7   0   0   0   0   0   0   0   8   0   0   0   0   0   0   0   0   0   0   0   0   0   0   5   6   0   0   0   0   0   0   9 95 90 81 80 78 74 70 67 46 
  10   0   0   0  10   0   0   0   0   0   0   0   0   0   0   0   0   0   7   0   0   0   5   0   0   0   6   0   7   0   0  14 98 96 92 89 87 86 82 80 79 75 72 67 62 57 
   3   0  10   0   0   9   0   0   0   0   0   0   0   0   0   0   0   0   6   0   0   0   0   0   0   0   0   0   0   0   0  13 97 88 86 85 84 82 81 78 74 70 69 67 56 
   7   0   3   0   0   0   0   0   0   0   0   0   0   0   0   0   0   0   0   0   9   6   0   0   7   0   0   0   0   0   0  12 96 94 92 90 88 85 82 80 69 66 64 55 
   7   0   0   0   0   0   0   0   0   0   0   0   0   0   0   0   0   0   0   0   0   0   0   0   0   0   0   0   0   0   0  11 98 93 91 86 83 82 81 78 67 66 50 
   9   0   0   0   0   0   0   0   0   0   0   0   0   0   0   0   0   0   0   0   0   0   0   0   0   0   0   0   0   0   0  15 100 97 92 91 90 88 86 84 82 78 76 74 69 68 67 
   6   0   0   7   0   0   3   0   7   0   0   0   0   0   0   8   0   0   0   0   0   0   0   0   0   0   0   0   0   0   0  14 94 93 91 88 87 84 82 80 78 77 69 68 66 62 
   3   0   0   0   0   0   0   0   0   0   0   0   0   0   0   0   0   0  10   0   0   0   5   0   0   0   0   5   0   4   0   9 93 92 91 90 79 63 62 61 54 
   9  10   5   0   0   0   0   7   0   4   0   0   0   0   0   0   0   0   0   0   0   8   0   0   0   0   0   0   0   0   0  13 89 87 86 85 83 82 81 80 78 76 68 67 66 
   1   0   0   0   0   0   0   0   0   0  10   0   0   0   0   0   0   0   5   0   0   0   0   0   0   0   5   0   0   4   0  13 98 94 92 89 87 86 85 84 83 81 78 76 74 
   3   0   0   0   5   0   0   0   0   0   0   4   0   0   0   0   8   0   0   0   0   0   0   0   0   0   0   0   0   0   0   9 85 83 82 78 77 74 69 66 56 
   7   0   4   0   0   0   0   0   0   9   0   0   0   0   0   0   0   0   0   6   0   0   0   0   0   0   0   0   4   0   0  11 94 93 90 87 81 80 79 78 77 76 74 
   2   0   0   0   0   0   0   0   0   9   0   0   0   0   5   0   0   0   0   0   0   0   0   0   0   0  10   7   0   0   0   9 89 86 85 82 79 77 76 68 66 
   2   0   0   0   0   0   0   0   2   0   0   0   0   3   0   6   6   0   0   0   0   0   0   0   0   0   0   0   0   0   0   8 99 94 84 78 76 74 69 68 
   8   0   9   0   0   0   0   0   0   0   0   0   8   0   6  10   0   0   8   6   6   0   0   0   0   0   0   0   0   0   0   6 89 81 80 78 63 62 
   7   0   0   0   0   0   0   8   6   5   0   0   0   0   6   0   0   0   0   0   0   0   4   5   0   0   0   0   0   0   0   8 88 87 81 80 79 75 74 67 
   7   6   0   0   0   7   0   0   0   0   0   0   0   0   0   0   0   0   0   0   0   0   0   0   0   0   0   0   5   0   0   5 89 84 80 75 62 
  10   0   0   0   0   0   0   0   0   0   0   0   0   0   0   0   0   0   0   0   0   7   0   0   0   0   5   0   0   0   0   6 95 86 82 81 79 74 
   5   6   6   0   0   0   0   0   0   0   0   0   0   0   0   0   0   0   0   8   0   0   0   0   0   0   0   0   0   0   0   6 93 92 86 80 77 75 
   2   0   0   0   0   0   0   5   6   0   0   0   0   0   0   6   9   0   0   0   0   0   0   0   0   0   0   0   0   7   0   5 90 83 78 76 68 
   9   0   0   0   0   0   0   0   0   0   0   0   0   0   0   0   0   0   0   0   0   0   0   0   0   0   0   0   0   0   9   4 88 76 75 74 
   5   0   0   0   0   0   0   0   0   0   0   0   0   0   0   0   5   0   0   3   3   0   0   0   0   0   0   0   0   0   0   4 81 77 76 74 
  10   0   0   0   0   0   0   0   0   0   5   0   0   0   4   0   0   0   7   0   0   0   0   0   0   0   0   0   7   0   0   4 80 79 76 75 
   6   0   0   0   0   7   0   0   0   9   0   0   0   0   0   5   0   0   0   0   8   0   0  10   0   0   0   0   0   0   0   3 83 78 74 
   7   0   0   0   0   0   0   0   0   0   0   0   0   0   0   0   0   0   0   0   0   0   0   0   0   0   0   0   0   0   0   3 85 79 76 
   5   0   0   0   0   6   0   0   0   0   0   0   0   0   0   0   0   6   0   0   0   0   0   0   0   0   0   0   0   0   0   3 90 83 80 
   6   0   0   0   2   0   3   0   0   0   0   0   0   0   0   0   0   0   0   0   3   2   0   0   8   0   0   0   0   0   0   3 81 77 74 
   8   0   0   8   0   0   9   0   0   0   0   0   0   0   0   0   0   0   0   0   0   3   0   0   0   0   0   0   0   7   3   2 84 67 
  10   0   0   0   0   0   0   0   7   0   0   0   0   0   0   0   0   0   0   0   0   0   0   5   9   0   0   0   0   0   8   2 76 74 
   4   0   0   0   0   8   0  10   0   0   0   0   0   0   0   0   0   0   0   0   0   0   9   0   0   0   0   0   0   0   0   2 83 75 
   8   0   0   0   0   0   9   3   0   0   7   0   0   0   0   0   0   0   0   0   0   0   0   0   0   0   0   0   0   0   0   2 78 75 
   3   0   0   0   5   0   8   0   0   0   0   0   0   0   0   0   0   0   0   0   7   0   0   0   6   0   0   0   0   6   0   2 83 76 
   6   0   0   0   0   0   0   0   0   0   0   0   0   0   0   0   0   0   0   0   0   0   0   0   0   0   0   0   0   0   0   1 75 
   7   0   8   0   0   8   0   0   0   0   0   0   5   0   4   0   0   0   0   0   0   0   0   0   0   0   0   0   0   0   0   1 77 
   7   0   0   0   0   0   0   0   0   0   0   0   0   0   0   0   0   0   0   0   0   0   0   0   6   0   7   0   5   0   0   1 75 
   6   0   0   0   4   0   0   0   0   0   0   5   0   0   0   0   0   0   0   0   0   6   0   0   0   0   0   0   0   0   0   1 79 
   5   0   0   0   0   8   0   0   0   0   0   0   0   0   0   0   0   0   7   0   0   0   0   0   0   0   0   0   0   0   0   1 87 
   5   7   0   0   0   0   0   8   0   0   0   0   0   0   0   0   0   0   0   0   0   0   0   0   0   0   0   0   0   0   0   1 82 
   4   0   0   0   0   3   0   0   0   5   0   0   0   0   5   0   0   0   8   0   0   0   3   0   8   0   0   0   0   0   0   1 74 
   5   5   5   0   0  10   0   0   0   5   0   0   0   0  10   6   0   0   0   0   0   0   0   0   0   0   0   0   0   0   0   1 74 
   1   0   0  10   6   0   0   0   0   0   0   0   0   0   0   7   0   0   0   0   0   0   0   0   0   0   0   0   0   0   3   1 102
   2   0   0   4   0   3   0   0   0   0   0   6   0   0   0   5   0   0   0   0   5   0   0   0   0   0   0   0   0   0   0   1 102
   2   0   0   0   0   0   0   0   0   0   5   0   0   0   0   0   0   0   0   0   0   0   0   0   0   0   0   0   0   0   5   1 102
   9   8   5   0   0   0   0   0   0   0   0   0   0   0   0   0   0   2   0   0   0   0   0   0   0   0   7   0   0   0   0   1 102
   4   0   0   0   0   0   0   0   0   0   0   0   0   0   7   0   0   0   0   0   0   6   0   0   3   0   0   0   0   0   7   1 102
   2   0   0   0   0   0   0   0   0   0   0   0   0   0   0   8   0   0   0   0   0   0   0   0   0   0   0   0   0   0   0   1 102
   4   0   0   0   0   0   0   0   6   0   0   0   0   0   0   0   0   0   7   0   0   0   0   0   0   3   0   0   0   0   0   1 102
  10   0   0   0   0   0   0   0   0   0   0   0   0   0   9   0   0   0   0   6   0   0   0   0   0   0   0   6   0   0   0   1 102
   9   0   0   0   0   0   0   0   0   0   0   0   0   0   0   0   0   0   5   0   8  10   0   0   0   0   0   0   0   0   0   1 102
   4   0   9   7   0   0   0   8   0   0   0  10   0   0   0   0   0   0   0   0   0   0   0   0   2   0   0   0   0  10   0   1 102
   6   0   0   0   0   0   0   0   0   5   0   0   0   8   0   0   0   0   0   0   8   8   0   0   0   0   0   0   5   0   0   1 102
   3   0   0   0   8   6   0   0   0   0   0   5   8   0   0   0   7   0   0   0   0   0   0   0  10   0   0   0   0   0   0   1 102
   1   0   0   0   0   0   0   0   0  10   0   0   0   9   0   0   5   0   0   0   0   0   0   0   0   0   0   0   0   0   0   1 102
  10   0   4   0   0   2   0  10   5   0   0   0   0  10   7   0   0   0   0   0   0   0   0   0   0   0   0   6   0   0   0   1 102
   4   0   0   0   0   4   0   0   0   0   0   9   0   0   0   0   0   0   0   0   0   0   0   0   0   3   6   0   0   0   0   1 102
   2   0   0   0   0   6   0   0   0   0   0   0   6   0   0   0   0   0   0   0   0   0   0   0   9   0   0   0   0   0   0   1 102
   2   0   0   0   0   0   2   0   0   0   5   0   5   0   0   0   0  10   0   0   0   0   0   0   0   5   8   0   0   0   0   1 102
   7   0   0   0   0   0   0   0   0   0   0   0   0   0   0   0   0   0   0   0   0   0   0   0   0   0   0   0   0   0   0   1 102
   9   0   0   0   8   0   0   0   0   0   0   0   0   0   0   0   9   0   0   0   0   7   0   0   0   0   0   0   0   6   0   1 102
   9   7  10   0   5   0   0   0   0   0   6   0   0   7   0   4   0   0   0   0   0   0   0   0   0  10   0   0   0   0   0   1 102
   2   0   5   0   0   4   0   0   0   0   0   0   0   0   0   0   0   0   0   0   0   0   0   0   0   7   0   0   0   0   0   1 102
   2   0   0   0   0   0   0   0   0   0   0   0   0   0   0   7   4   0   0   0   0   0   0   5   0   0   0   0   0   0   0   1 102
   4   0   0   0   0   4   0   0   0   0   6   0   0   0   0   0   0   0   5   0   0   0   0   0   0   8   0   0   0   0   0   1 102
   9   0   7   0   0   0   0   8   0   0   0   0   0   0   0   0   0   0   0   4   0   0   0   0   0   0   7   0   0   0   0   1 102
   7   0   0   0   0   0   0   6   0   0   0   0   0   0   0   0   0   0   0   0   0   0   0   8   0   0   0   6   0   0   0   1 102
   5   3   0   0   0   9   0   0   0   0   0   0   0   0   6   0   0   0   0   0   0   0   7   0   0   0   0   0   0   0   0   1 102
   4   0   0   0   0   0   5   5   5   9   9   0   0   0   0   0   0   0   0   0   0   0   0   0   0   0   8   9   0   0  10   1 102
   4   0   0   0   0   0   0   4   0   0   0   0   0   0   0   0   0   0   6   5   0   0   0   0   0   0   0   0   0   0   0   1 102
   0   0   0   0   0   0   0   0   0   0   0   0   0   0   0   0   0   0   0   0   0   0   0   0   0   0   0   0   0   0   0   0 
